n_res = 4;
rc = [ 0, 0, 0, 0 ];
n_tasks = 30;
d = [ 9, 9, 2, 5, 9, 5, 10, 9, 1, 2, 9, 6, 5, 4, 2, 10, 5, 9, 2, 4, 7, 3, 4, 2, 9, 6, 9, 8, 8, 10 ];
rr = [| 0, 0, 0, 0, 0, 0, 0, 0, 0, 0, 0, 0, 0, 0, 0, 0, 0, 0, 0, 0, 0, 0, 0, 0, 0, 0, 0, 0, 0, 0
      | 0, 0, 0, 0, 0, 0, 0, 0, 0, 0, 0, 0, 0, 0, 0, 0, 0, 0, 0, 0, 0, 0, 0, 0, 0, 0, 0, 0, 0, 0
      | 0, 0, 0, 0, 0, 0, 0, 0, 0, 0, 0, 0, 0, 0, 0, 0, 0, 0, 0, 0, 0, 0, 0, 0, 0, 0, 0, 0, 0, 0
      | 0, 0, 0, 0, 0, 0, 0, 0, 0, 0, 0, 0, 0, 0, 0, 0, 0, 0, 0, 0, 0, 0, 0, 0, 0, 0, 0, 0, 0, 0 |];
suc = [ { 5, 7, 9 },
       { 11, 19, 28 },
       { 4, 9, 22 },
       { 6, 8, 17 },
       { 6, 12, 14 },
       { 13, 21, 25 },
       { 8, 10, 12 },
       { 16, 25, 26 },
       { 11, 15, 18 },
       { 14, 19, 26 },
       { 13, 16 },
       { 16, 18, 20 },
       { 23, 29 },
       { 17, 18, 22 },
       { 20, 26, 30 },
       { 21, 29 },
       { 25, 27, 30 },
       { 21, 24, 27 },
       { 20, 22 },
       { 24 },
       { 23 },
       { 23, 24 },
       { 30 },
       { 29 },
       { 28 },
       { 27 },
       { 28 },
       {  },
       {  },
       {  } ];
